Route #1: 0 20 32 31 11 4 54 46 38 13 48 0
Route #2: 0 56 34 35 58 59 0
Route #3: 0 7 8 55 3 42 44 22 19 12 0
Route #4: 0 52 1 9 25 49 26 6 0
Route #5: 0 28 53 30 21 41 23 24 47 45 0
Route #6: 0 15 16 14 40 61 10 0
Route #7: 0 36 37 2 39 27 18 5 60 0
Route #8: 0 33 17 50 57 43 29 51 0
Cost 1918:
